\Problem name: samp1.lp

Minimize
 100 x1 + 160 x2
Subject To
 30 x1 + 30 x2 >= 15000
 10 x1 + 20 x2 >= 11000
 10 x1 + 30 x2 >= 12000
 10 x1 + 15 x2 >= 10000
Bounds
 0 <= X1 <= 4
 2 <= X2 <= 5
 0 <= X3 <= 1
 3 <= X4 <= 8
Binaries
 X3 
Generals
 X2 
End